3

O       0.00000000        0.00000000      0.00000000 0.938408
H       0.75718909        0.00000000    -0.58651475  0.660763
H       -0.75718909       0.00000000    -0.58651475  0.660763
lattice_vector    2000.0       0.0       0.0
lattice_vector       0.0    2000.0       0.0
lattice_vector       0.0       0.0    2000.0
